Cs Sn  I 
 1.0000000000000000
    11.7899386788588778    0.0000000000000000    0.0000000000000000
     0.0000000000000000   11.7899386788588778    0.0000000000000000
     0.0000000000000000    0.0000000000000000   11.7899386788588778
 Cs  Sn  I  
   8   4  24
Cartesian
  8.8424540066419333  8.8424540066419279  2.9474846672125099
  8.8424540066419315  2.9474846672125090  2.9474846672125099
  8.8424540066419315  2.9474846672125090  8.8424540066419244
  8.8424540066419315  8.8424540066419244  8.8424540066419279
  2.9474846672125077  8.8424540066419279  8.8424540066419279
  2.9474846672125077  2.9474846672125090  8.8424540066419279
  2.9474846672125077  2.9474846672125090  2.9474846672125099
  2.9474846672125077  8.8424540066419279  2.9474846672125099
 -0.0000000025022155 -0.0000000025022168 -0.0000000025022168
 -0.0000000025022155  5.8949693369272120  5.8949693369272023
  5.8949693369272094 -0.0000000025022168  5.8949693369272023
  5.8949693369272120  5.8949693369272138 -0.0000000025022168
  8.9351504825609194  5.8949693369272156  5.8949693369272023
 -0.0000000025022154  8.9351504825609229 -0.0000000025022169
 -0.0000000025022154  2.8547881912935003 -0.0000000025022169
  8.7497575307229258  5.8949693369272111 -0.0000000025022169
 -0.0000000025022154  5.8949693369272111  3.0401811431315080
 -0.0000000025022154  5.8949693369272111  8.7497575307229258
  8.9351504825609194 -0.0000000025022169 -0.0000000025022169
 -0.0000000025022154  3.0401811431315031  5.8949693369272023
 -0.0000000025022154  8.7497575307229223  5.8949693369272023
  8.7497575307229170 -0.0000000025022169  5.8949693369272023
 -0.0000000025022154 -0.0000000025022169  8.9351504825609087
 -0.0000000025022154 -0.0000000025022169  2.8547881912935078
  3.0401811431315062  5.8949693369272111 -0.0000000025022169
  5.8949693369272120  8.9351504825609123  5.8949693369272023
  5.8949693369272120  2.8547881912935051  5.8949693369272023
  2.8547881912935074  5.8949693369272156  5.8949693369272023
  5.8949693369272120  5.8949693369272156  8.9351504825609034
  5.8949693369272120  5.8949693369272156  2.8547881912935091
  3.0401811431315013 -0.0000000025022169  5.8949693369272023
  5.8949693369272076  3.0401811431314965 -0.0000000025022169
  5.8949693369272076  8.7497575307229436 -0.0000000025022169
  2.8547881912935078 -0.0000000025022169 -0.0000000025022169
  5.8949693369272076 -0.0000000025022169  3.0401811431314960
  5.8949693369272076 -0.0000000025022169  8.7497575307229560
