 C  N  H Sn Br 
 1.0000000000000000
     5.9801440522159943    0.0000000000000000    0.0000000000000000
    -0.0000000000000000    5.8232180233852828    0.0000000000000000
    -0.7263261269514263   -0.0000000000000000    5.9369486615010238
 C   N   H   Sn  Br 
   1   1   6   1   3
Cartesian
  5.4245580500215800  2.9116090067185718  0.2770861785302992
  0.0624646939524477  2.9116090067185718  5.5698220157568255
  5.5549303400496184  2.9116090067185718  1.3552636297798355
  4.1656247179427757  3.8035192634094432  5.8962145245036908
  4.1656247179421610  2.0196987500226404  5.8962145244982489
  0.6136459850690361  3.7435394078839694  5.8334672125505715
  0.6136459850702730  2.0796786055544771  5.8334672125515716
 -0.0105811445805946  2.9116090067185718  4.5486082035340782
  2.5955944213292441 -0.0000000049740690  2.9749071706706709
  2.6297425571684316 -0.0000000049740690  0.2150797298998415
  2.3593464062347391  2.9116090067185718  2.9212772220860930
  5.2210334741645150 -0.0000000049740690  3.2945329467754876
