 C  N  H Pb Cl 
 1.0000000000000000
     5.7461061935614834    0.0000000000000000    0.0000000000000000
    -0.0000000000000000    5.6318939418735496    0.0000000000000000
    -0.3742055948297999   -0.0000000000000000    5.7620582568123204
 C   N   H   Pb  Cl 
   1   1   6   1   3
Cartesian
  5.1663792524258021  2.8159469661261305  0.2817011022507502
  0.3872570396654998  2.8159469661261305  5.3978125593081723
  5.3002281995728495  2.8159469661261305  1.3597558955239919
  4.2606939610556793  3.7106814229860281  5.7309964186858284
  4.2606939610555727  1.9212125092660652  5.7309964186858871
  0.9320960629259836  3.6515947601066654  5.6603102458226706
  0.9320960629248302  1.9802991721454470  5.6603102458219112
  0.3234930894955148  2.8159469661261305  4.3748855023117885
  2.6341148519945783 -0.0000000048106440  2.9066142984075158
  2.5019948850704554 -0.0000000048106440  0.1226216808825136
  2.3460489834479694  2.8159469661261305  2.7561810212938478
  5.3131787018003873 -0.0000000048106440  3.2409213606163467
