 C  N  H Pb  I 
 1.0000000000000000
     6.5226343615534805    0.0000000000000000    0.0000000000000000
    -0.0000000000000000    6.2759968279671456    0.0000000000000000
    -0.2850244076810649   -0.0000000000000000    6.3655763082113577
 C   N   H   Pb  I  
   1   1   6   1   3
Cartesian
  5.9600229586282820  3.1379984086227499  0.2605081221788147
  0.5247284820673246  3.1379984086227499  6.0406601797370003
  6.0480823782570203  3.1379984086227499  1.3437158048232507
  5.1566900048248323  4.0309565066427897  6.2861917345500791
  5.1566900048243065  2.2450403106028585  6.2861917345503295
  1.0626395428673989  3.9706938925095523  6.3275032067711283
  1.0626395428679241  2.3053029247352064  6.3275032067709738
  0.5115092640968008  3.1379984086227499  5.0136723485920793
  3.1187576616681913 -0.0000000053608230  3.2553238117646490
  2.8103107024537053 -0.0000000053608230  0.0899588453359221
  2.6643763037247585  3.1379984086227499  3.0725447192341320
  6.0676343479104800 -0.0000000053608230  3.5382267603811903
