 C  N  H Sn Cl 
 1.0000000000000000
     5.7677310877795094    0.0000000000000000    0.0000000000000000
    -0.0000000000000000    5.5513920924596620    0.0000000000000000
    -0.7161353702343196   -0.0000000000000000    5.7523377745709805
 C   N   H   Sn  Cl 
   1   1   6   1   3
Cartesian
  5.2550135729917304  2.7756960414879495  0.2112555892579686
  0.1339505239443918  2.7756960414879495  5.3671511084232080
  5.3567374028960444  2.7756960414879495  1.2928775365854672
  4.0131264700834208  3.6688555912313370  5.6364524028934921
  4.0131264700807803  1.8825364917445577  5.6364524028929539
  0.6674824775002742  3.6083470356573959  5.6636185483675199
  0.6674824775010757  1.9430450473056229  5.6636185483701231
  0.1132348705683571  2.7756960414879495  4.3427590738787218
  2.4149172864110318 -0.0000000047418810  2.9202927546944291
  2.4546816483207654 -0.0000000047418810  0.3568968957227908
  2.2345436022414540  2.7756960414879495  2.7696044405429792
  4.8877219267129304 -0.0000000047418810  3.1686605435261002
