 C  N  H Sn  I 
 1.0000000000000000
     6.3830595114298392    0.0000000000000000    0.0000000000000000
    -0.0000000000000000    6.2039205551265555    0.0000000000000000
    -0.4644277136601029   -0.0000000000000000    6.2683104594886840
 C   N   H   Sn  I  
   1   1   6   1   3
Cartesian
  5.8076143282286123  3.1019602722640207  0.2673166691820296
  0.3223043070984296  3.1019602722640207  5.9242850545640922
  5.9145271065043445  3.1019602722640207  1.3478632188402642
  4.8203002723707726  3.9950130170660483  6.2055274416904842
  4.8203002723707913  2.2089075274628609  6.2055274416914736
  0.8668122006443745  3.9339016986820865  6.2004006127802063
  0.8668122006444710  2.2700188458455450  6.2004006127800491
  0.2855520730752446  3.1019602722640207  4.8991451263609012
  2.9501743205723252 -0.0000000052992570  3.1164730131974716
  2.8271190633932441 -0.0000000052992570  0.1140529884057884
  2.6231255434690604  3.1019602722640207  3.0933190534425199
  5.8095119530352823 -0.0000000052992570  3.4148746028255443
