Cs Sn Cl 
 1.0000000000000000
     5.5121281739869437    0.0000000000000000    0.0000000000000000
     0.0000000000000000    5.5121281739869437    0.0000000000000000
     0.0000000000000000    0.0000000000000000    5.5121281739869437
 Cs  Sn  Cl 
   1   1   3
Cartesian
  0.0000000000000000  0.0000000000000000  0.0000000000000000
  2.7560640869934718  2.7560640869934718  2.7560640869934718
  0.0000000000000000  2.7560640869934718  2.7560640869934718
  2.7560640869934718  2.7560640869934718  0.0000000000000000
  2.7560640869934718  0.0000000000000000  2.7560640869934718
