 C  N  H Pb Br 
 1.0000000000000000
     6.0545382435516224    0.0000000000000000    0.0000000000000000
     0.0000000000000000    5.8887580631443237    0.0000000000000000
    -0.3465882353731480   -0.0000000000000000    5.9848206827292048
 C   N   H   Pb  Br 
   1   1   6   1   3
Cartesian
  5.4794302304849127  2.9443790265421095  0.2700930968142938
  0.4347118423615294  2.9443790265421095  5.6372384924698240
  5.5971656997977446  2.9443790265421095  1.3500431138637232
  4.6054830831529312  3.8386193975239631  5.9325192794167432
  4.6054830831528966  2.0501386555604011  5.9325192794167760
  0.9761538919563364  3.7775208088207122  5.9141059206958255
  0.9761538919562442  2.1112372442632399  5.9141059206955884
  0.3988703680005136  2.9443790265421095  4.6118462760203061
  2.8331406864848314 -0.0000000050300519  3.0227022988936150
  2.6524688768113687 -0.0000000050300519  0.0960520787321924
  2.4811209564422385  2.9443790265421095  2.8600930840748702
  5.6189426207212341 -0.0000000050300519  3.3392214035768504
